\ Model Classifica
\ LP format - for model browsing. Use MPS format to capture full model detail.
Minimize
  x_0 + x_1 + x_2 + x_3 + x_4 + x_5 + x_6 + x_7 + x_8 + x_9
Subject To
 c3_7_0: x_0 + x_3 + x_7 >= 1
 c7_8_0: x_0 + x_7 + x_8 >= 1
 cc0_9_3: x_0 + x_3 + x_9 >= 1
 c3_7_0_9: x_0 + x_3 + x_7 + x_9 >= 1
 c7_8_0_9: x_0 + x_7 + x_8 + x_9 >= 1
Bounds
Binaries
 x_0 x_1 x_2 x_3 x_4 x_5 x_6 x_7 x_8 x_9
End
